(set-logic QF_LRA)
(declare-fun T1 () Real )
(declare-fun T2 () Real )
(declare-fun T3 () Real )
(declare-fun T4 () Real )
(declare-fun T5 () Real )
(declare-fun T6 () Real )
(declare-fun T7 () Real )
(declare-fun T8 () Real )
(declare-fun T9 () Real )
(declare-fun T10 () Real )
(declare-fun Z () Real )
(declare-fun k () Real )
(assert (let
(( $goal (>= Z k) ))
(let
((
$phi ( and 
(or ( <= ( + T1 77 ) T2 ) ( <= ( + T2 5 ) T1 ) )
(or ( <= ( + T1 102 )  ( + T2 5 ) ) ( <= ( + T2 77 )( + T1 77 ) ) )
(or ( <= ( + T1 187 )  ( + T2 77 ) ) ( <= ( + T2 147 )( + T1 102 ) ) )
(or ( <= ( + T1 277 )  ( + T2 147 ) ) ( <= ( + T2 216 )( + T1 187 ) ) )
(or ( <= ( + T1 352 )  ( + T2 216 ) ) ( <= ( + T2 304 )( + T1 277 ) ) )
(or ( <= ( + T1 412 )  ( + T2 304 ) ) ( <= ( + T2 348 )( + T1 352 ) ) )
(or ( <= ( + T1 453 )  ( + T2 348 ) ) ( <= ( + T2 445 )( + T1 412 ) ) )
(or ( <= ( + T1 497 )  ( + T2 445 ) ) ( <= ( + T2 479 )( + T1 453 ) ) )
(or ( <= ( + T1 77 ) T3 ) ( <= ( + T3 13 ) T1 ) )
(or ( <= ( + T1 102 )  ( + T3 13 ) ) ( <= ( + T3 102 )( + T1 77 ) ) )
(or ( <= ( + T1 187 )  ( + T3 102 ) ) ( <= ( + T3 108 )( + T1 102 ) ) )
(or ( <= ( + T1 277 )  ( + T3 108 ) ) ( <= ( + T3 128 )( + T1 187 ) ) )
(or ( <= ( + T1 352 )  ( + T3 128 ) ) ( <= ( + T3 177 )( + T1 277 ) ) )
(or ( <= ( + T1 412 )  ( + T3 177 ) ) ( <= ( + T3 270 )( + T1 352 ) ) )
(or ( <= ( + T1 453 )  ( + T3 270 ) ) ( <= ( + T3 310 )( + T1 412 ) ) )
(or ( <= ( + T1 497 )  ( + T3 310 ) ) ( <= ( + T3 355 )( + T1 453 ) ) )
(or ( <= ( + T1 77 ) T4 ) ( <= ( + T4 100 ) T1 ) )
(or ( <= ( + T1 102 )  ( + T4 100 ) ) ( <= ( + T4 151 )( + T1 77 ) ) )
(or ( <= ( + T1 187 )  ( + T4 151 ) ) ( <= ( + T4 245 )( + T1 102 ) ) )
(or ( <= ( + T1 277 )  ( + T4 245 ) ) ( <= ( + T4 308 )( + T1 187 ) ) )
(or ( <= ( + T1 352 )  ( + T4 308 ) ) ( <= ( + T4 395 )( + T1 277 ) ) )
(or ( <= ( + T1 412 )  ( + T4 395 ) ) ( <= ( + T4 477 )( + T1 352 ) ) )
(or ( <= ( + T1 453 )  ( + T4 477 ) ) ( <= ( + T4 550 )( + T1 412 ) ) )
(or ( <= ( + T1 497 )  ( + T4 550 ) ) ( <= ( + T4 565 )( + T1 453 ) ) )
(or ( <= ( + T1 77 ) T5 ) ( <= ( + T5 6 ) T1 ) )
(or ( <= ( + T1 102 )  ( + T5 6 ) ) ( <= ( + T5 15 )( + T1 77 ) ) )
(or ( <= ( + T1 187 )  ( + T5 15 ) ) ( <= ( + T5 72 )( + T1 102 ) ) )
(or ( <= ( + T1 277 )  ( + T5 72 ) ) ( <= ( + T5 105 )( + T1 187 ) ) )
(or ( <= ( + T1 352 )  ( + T5 105 ) ) ( <= ( + T5 125 )( + T1 277 ) ) )
(or ( <= ( + T1 412 )  ( + T5 125 ) ) ( <= ( + T5 222 )( + T1 352 ) ) )
(or ( <= ( + T1 453 )  ( + T5 222 ) ) ( <= ( + T5 298 )( + T1 412 ) ) )
(or ( <= ( + T1 497 )  ( + T5 298 ) ) ( <= ( + T5 322 )( + T1 453 ) ) )
(or ( <= ( + T1 77 ) T6 ) ( <= ( + T6 21 ) T1 ) )
(or ( <= ( + T1 102 )  ( + T6 21 ) ) ( <= ( + T6 66 )( + T1 77 ) ) )
(or ( <= ( + T1 187 )  ( + T6 66 ) ) ( <= ( + T6 159 )( + T1 102 ) ) )
(or ( <= ( + T1 277 )  ( + T6 159 ) ) ( <= ( + T6 219 )( + T1 187 ) ) )
(or ( <= ( + T1 352 )  ( + T6 219 ) ) ( <= ( + T6 259 )( + T1 277 ) ) )
(or ( <= ( + T1 412 )  ( + T6 259 ) ) ( <= ( + T6 300 )( + T1 352 ) ) )
(or ( <= ( + T1 453 )  ( + T6 300 ) ) ( <= ( + T6 393 )( + T1 412 ) ) )
(or ( <= ( + T1 497 )  ( + T6 393 ) ) ( <= ( + T6 446 )( + T1 453 ) ) )
(or ( <= ( + T1 77 ) T7 ) ( <= ( + T7 29 ) T1 ) )
(or ( <= ( + T1 102 )  ( + T7 29 ) ) ( <= ( + T7 128 )( + T1 77 ) ) )
(or ( <= ( + T1 187 )  ( + T7 128 ) ) ( <= ( + T7 200 )( + T1 102 ) ) )
(or ( <= ( + T1 277 )  ( + T7 200 ) ) ( <= ( + T7 229 )( + T1 187 ) ) )
(or ( <= ( + T1 352 )  ( + T7 229 ) ) ( <= ( + T7 320 )( + T1 277 ) ) )
(or ( <= ( + T1 412 )  ( + T7 320 ) ) ( <= ( + T7 383 )( + T1 352 ) ) )
(or ( <= ( + T1 453 )  ( + T7 383 ) ) ( <= ( + T7 457 )( + T1 412 ) ) )
(or ( <= ( + T1 497 )  ( + T7 457 ) ) ( <= ( + T7 500 )( + T1 453 ) ) )
(or ( <= ( + T1 77 ) T8 ) ( <= ( + T8 13 ) T1 ) )
(or ( <= ( + T1 102 )  ( + T8 13 ) ) ( <= ( + T8 32 )( + T1 77 ) ) )
(or ( <= ( + T1 187 )  ( + T8 32 ) ) ( <= ( + T8 37 )( + T1 102 ) ) )
(or ( <= ( + T1 277 )  ( + T8 37 ) ) ( <= ( + T8 88 )( + T1 187 ) ) )
(or ( <= ( + T1 352 )  ( + T8 88 ) ) ( <= ( + T8 141 )( + T1 277 ) ) )
(or ( <= ( + T1 412 )  ( + T8 141 ) ) ( <= ( + T8 170 )( + T1 352 ) ) )
(or ( <= ( + T1 453 )  ( + T8 170 ) ) ( <= ( + T8 236 )( + T1 412 ) ) )
(or ( <= ( + T1 497 )  ( + T8 236 ) ) ( <= ( + T8 246 )( + T1 453 ) ) )
(or ( <= ( + T1 77 ) T9 ) ( <= ( + T9 37 ) T1 ) )
(or ( <= ( + T1 102 )  ( + T9 37 ) ) ( <= ( + T9 59 )( + T1 77 ) ) )
(or ( <= ( + T1 187 )  ( + T9 59 ) ) ( <= ( + T9 101 )( + T1 102 ) ) )
(or ( <= ( + T1 277 )  ( + T9 101 ) ) ( <= ( + T9 158 )( + T1 187 ) ) )
(or ( <= ( + T1 352 )  ( + T9 158 ) ) ( <= ( + T9 228 )( + T1 277 ) ) )
(or ( <= ( + T1 412 )  ( + T9 228 ) ) ( <= ( + T9 246 )( + T1 352 ) ) )
(or ( <= ( + T1 453 )  ( + T9 246 ) ) ( <= ( + T9 326 )( + T1 412 ) ) )
(or ( <= ( + T1 497 )  ( + T9 326 ) ) ( <= ( + T9 416 )( + T1 453 ) ) )
(or ( <= ( + T1 77 ) T10 ) ( <= ( + T10 14 ) T1 ) )
(or ( <= ( + T1 102 )  ( + T10 14 ) ) ( <= ( + T10 38 )( + T1 77 ) ) )
(or ( <= ( + T1 187 )  ( + T10 38 ) ) ( <= ( + T10 87 )( + T1 102 ) ) )
(or ( <= ( + T1 277 )  ( + T10 87 ) ) ( <= ( + T10 141 )( + T1 187 ) ) )
(or ( <= ( + T1 352 )  ( + T10 141 ) ) ( <= ( + T10 205 )( + T1 277 ) ) )
(or ( <= ( + T1 412 )  ( + T10 205 ) ) ( <= ( + T10 247 )( + T1 352 ) ) )
(or ( <= ( + T1 453 )  ( + T10 247 ) ) ( <= ( + T10 253 )( + T1 412 ) ) )
(or ( <= ( + T1 497 )  ( + T10 253 ) ) ( <= ( + T10 297 )( + T1 453 ) ) )
(or ( <= ( + T2 5 ) T3 ) ( <= ( + T3 13 ) T2 ) )
(or ( <= ( + T2 77 )  ( + T3 13 ) ) ( <= ( + T3 102 )( + T2 5 ) ) )
(or ( <= ( + T2 147 )  ( + T3 102 ) ) ( <= ( + T3 108 )( + T2 77 ) ) )
(or ( <= ( + T2 216 )  ( + T3 108 ) ) ( <= ( + T3 128 )( + T2 147 ) ) )
(or ( <= ( + T2 304 )  ( + T3 128 ) ) ( <= ( + T3 177 )( + T2 216 ) ) )
(or ( <= ( + T2 348 )  ( + T3 177 ) ) ( <= ( + T3 270 )( + T2 304 ) ) )
(or ( <= ( + T2 445 )  ( + T3 270 ) ) ( <= ( + T3 310 )( + T2 348 ) ) )
(or ( <= ( + T2 479 )  ( + T3 310 ) ) ( <= ( + T3 355 )( + T2 445 ) ) )
(or ( <= ( + T2 5 ) T4 ) ( <= ( + T4 100 ) T2 ) )
(or ( <= ( + T2 77 )  ( + T4 100 ) ) ( <= ( + T4 151 )( + T2 5 ) ) )
(or ( <= ( + T2 147 )  ( + T4 151 ) ) ( <= ( + T4 245 )( + T2 77 ) ) )
(or ( <= ( + T2 216 )  ( + T4 245 ) ) ( <= ( + T4 308 )( + T2 147 ) ) )
(or ( <= ( + T2 304 )  ( + T4 308 ) ) ( <= ( + T4 395 )( + T2 216 ) ) )
(or ( <= ( + T2 348 )  ( + T4 395 ) ) ( <= ( + T4 477 )( + T2 304 ) ) )
(or ( <= ( + T2 445 )  ( + T4 477 ) ) ( <= ( + T4 550 )( + T2 348 ) ) )
(or ( <= ( + T2 479 )  ( + T4 550 ) ) ( <= ( + T4 565 )( + T2 445 ) ) )
(or ( <= ( + T2 5 ) T5 ) ( <= ( + T5 6 ) T2 ) )
(or ( <= ( + T2 77 )  ( + T5 6 ) ) ( <= ( + T5 15 )( + T2 5 ) ) )
(or ( <= ( + T2 147 )  ( + T5 15 ) ) ( <= ( + T5 72 )( + T2 77 ) ) )
(or ( <= ( + T2 216 )  ( + T5 72 ) ) ( <= ( + T5 105 )( + T2 147 ) ) )
(or ( <= ( + T2 304 )  ( + T5 105 ) ) ( <= ( + T5 125 )( + T2 216 ) ) )
(or ( <= ( + T2 348 )  ( + T5 125 ) ) ( <= ( + T5 222 )( + T2 304 ) ) )
(or ( <= ( + T2 445 )  ( + T5 222 ) ) ( <= ( + T5 298 )( + T2 348 ) ) )
(or ( <= ( + T2 479 )  ( + T5 298 ) ) ( <= ( + T5 322 )( + T2 445 ) ) )
(or ( <= ( + T2 5 ) T6 ) ( <= ( + T6 21 ) T2 ) )
(or ( <= ( + T2 77 )  ( + T6 21 ) ) ( <= ( + T6 66 )( + T2 5 ) ) )
(or ( <= ( + T2 147 )  ( + T6 66 ) ) ( <= ( + T6 159 )( + T2 77 ) ) )
(or ( <= ( + T2 216 )  ( + T6 159 ) ) ( <= ( + T6 219 )( + T2 147 ) ) )
(or ( <= ( + T2 304 )  ( + T6 219 ) ) ( <= ( + T6 259 )( + T2 216 ) ) )
(or ( <= ( + T2 348 )  ( + T6 259 ) ) ( <= ( + T6 300 )( + T2 304 ) ) )
(or ( <= ( + T2 445 )  ( + T6 300 ) ) ( <= ( + T6 393 )( + T2 348 ) ) )
(or ( <= ( + T2 479 )  ( + T6 393 ) ) ( <= ( + T6 446 )( + T2 445 ) ) )
(or ( <= ( + T2 5 ) T7 ) ( <= ( + T7 29 ) T2 ) )
(or ( <= ( + T2 77 )  ( + T7 29 ) ) ( <= ( + T7 128 )( + T2 5 ) ) )
(or ( <= ( + T2 147 )  ( + T7 128 ) ) ( <= ( + T7 200 )( + T2 77 ) ) )
(or ( <= ( + T2 216 )  ( + T7 200 ) ) ( <= ( + T7 229 )( + T2 147 ) ) )
(or ( <= ( + T2 304 )  ( + T7 229 ) ) ( <= ( + T7 320 )( + T2 216 ) ) )
(or ( <= ( + T2 348 )  ( + T7 320 ) ) ( <= ( + T7 383 )( + T2 304 ) ) )
(or ( <= ( + T2 445 )  ( + T7 383 ) ) ( <= ( + T7 457 )( + T2 348 ) ) )
(or ( <= ( + T2 479 )  ( + T7 457 ) ) ( <= ( + T7 500 )( + T2 445 ) ) )
(or ( <= ( + T2 5 ) T8 ) ( <= ( + T8 13 ) T2 ) )
(or ( <= ( + T2 77 )  ( + T8 13 ) ) ( <= ( + T8 32 )( + T2 5 ) ) )
(or ( <= ( + T2 147 )  ( + T8 32 ) ) ( <= ( + T8 37 )( + T2 77 ) ) )
(or ( <= ( + T2 216 )  ( + T8 37 ) ) ( <= ( + T8 88 )( + T2 147 ) ) )
(or ( <= ( + T2 304 )  ( + T8 88 ) ) ( <= ( + T8 141 )( + T2 216 ) ) )
(or ( <= ( + T2 348 )  ( + T8 141 ) ) ( <= ( + T8 170 )( + T2 304 ) ) )
(or ( <= ( + T2 445 )  ( + T8 170 ) ) ( <= ( + T8 236 )( + T2 348 ) ) )
(or ( <= ( + T2 479 )  ( + T8 236 ) ) ( <= ( + T8 246 )( + T2 445 ) ) )
(or ( <= ( + T2 5 ) T9 ) ( <= ( + T9 37 ) T2 ) )
(or ( <= ( + T2 77 )  ( + T9 37 ) ) ( <= ( + T9 59 )( + T2 5 ) ) )
(or ( <= ( + T2 147 )  ( + T9 59 ) ) ( <= ( + T9 101 )( + T2 77 ) ) )
(or ( <= ( + T2 216 )  ( + T9 101 ) ) ( <= ( + T9 158 )( + T2 147 ) ) )
(or ( <= ( + T2 304 )  ( + T9 158 ) ) ( <= ( + T9 228 )( + T2 216 ) ) )
(or ( <= ( + T2 348 )  ( + T9 228 ) ) ( <= ( + T9 246 )( + T2 304 ) ) )
(or ( <= ( + T2 445 )  ( + T9 246 ) ) ( <= ( + T9 326 )( + T2 348 ) ) )
(or ( <= ( + T2 479 )  ( + T9 326 ) ) ( <= ( + T9 416 )( + T2 445 ) ) )
(or ( <= ( + T2 5 ) T10 ) ( <= ( + T10 14 ) T2 ) )
(or ( <= ( + T2 77 )  ( + T10 14 ) ) ( <= ( + T10 38 )( + T2 5 ) ) )
(or ( <= ( + T2 147 )  ( + T10 38 ) ) ( <= ( + T10 87 )( + T2 77 ) ) )
(or ( <= ( + T2 216 )  ( + T10 87 ) ) ( <= ( + T10 141 )( + T2 147 ) ) )
(or ( <= ( + T2 304 )  ( + T10 141 ) ) ( <= ( + T10 205 )( + T2 216 ) ) )
(or ( <= ( + T2 348 )  ( + T10 205 ) ) ( <= ( + T10 247 )( + T2 304 ) ) )
(or ( <= ( + T2 445 )  ( + T10 247 ) ) ( <= ( + T10 253 )( + T2 348 ) ) )
(or ( <= ( + T2 479 )  ( + T10 253 ) ) ( <= ( + T10 297 )( + T2 445 ) ) )
(or ( <= ( + T3 13 ) T4 ) ( <= ( + T4 100 ) T3 ) )
(or ( <= ( + T3 102 )  ( + T4 100 ) ) ( <= ( + T4 151 )( + T3 13 ) ) )
(or ( <= ( + T3 108 )  ( + T4 151 ) ) ( <= ( + T4 245 )( + T3 102 ) ) )
(or ( <= ( + T3 128 )  ( + T4 245 ) ) ( <= ( + T4 308 )( + T3 108 ) ) )
(or ( <= ( + T3 177 )  ( + T4 308 ) ) ( <= ( + T4 395 )( + T3 128 ) ) )
(or ( <= ( + T3 270 )  ( + T4 395 ) ) ( <= ( + T4 477 )( + T3 177 ) ) )
(or ( <= ( + T3 310 )  ( + T4 477 ) ) ( <= ( + T4 550 )( + T3 270 ) ) )
(or ( <= ( + T3 355 )  ( + T4 550 ) ) ( <= ( + T4 565 )( + T3 310 ) ) )
(or ( <= ( + T3 13 ) T5 ) ( <= ( + T5 6 ) T3 ) )
(or ( <= ( + T3 102 )  ( + T5 6 ) ) ( <= ( + T5 15 )( + T3 13 ) ) )
(or ( <= ( + T3 108 )  ( + T5 15 ) ) ( <= ( + T5 72 )( + T3 102 ) ) )
(or ( <= ( + T3 128 )  ( + T5 72 ) ) ( <= ( + T5 105 )( + T3 108 ) ) )
(or ( <= ( + T3 177 )  ( + T5 105 ) ) ( <= ( + T5 125 )( + T3 128 ) ) )
(or ( <= ( + T3 270 )  ( + T5 125 ) ) ( <= ( + T5 222 )( + T3 177 ) ) )
(or ( <= ( + T3 310 )  ( + T5 222 ) ) ( <= ( + T5 298 )( + T3 270 ) ) )
(or ( <= ( + T3 355 )  ( + T5 298 ) ) ( <= ( + T5 322 )( + T3 310 ) ) )
(or ( <= ( + T3 13 ) T6 ) ( <= ( + T6 21 ) T3 ) )
(or ( <= ( + T3 102 )  ( + T6 21 ) ) ( <= ( + T6 66 )( + T3 13 ) ) )
(or ( <= ( + T3 108 )  ( + T6 66 ) ) ( <= ( + T6 159 )( + T3 102 ) ) )
(or ( <= ( + T3 128 )  ( + T6 159 ) ) ( <= ( + T6 219 )( + T3 108 ) ) )
(or ( <= ( + T3 177 )  ( + T6 219 ) ) ( <= ( + T6 259 )( + T3 128 ) ) )
(or ( <= ( + T3 270 )  ( + T6 259 ) ) ( <= ( + T6 300 )( + T3 177 ) ) )
(or ( <= ( + T3 310 )  ( + T6 300 ) ) ( <= ( + T6 393 )( + T3 270 ) ) )
(or ( <= ( + T3 355 )  ( + T6 393 ) ) ( <= ( + T6 446 )( + T3 310 ) ) )
(or ( <= ( + T3 13 ) T7 ) ( <= ( + T7 29 ) T3 ) )
(or ( <= ( + T3 102 )  ( + T7 29 ) ) ( <= ( + T7 128 )( + T3 13 ) ) )
(or ( <= ( + T3 108 )  ( + T7 128 ) ) ( <= ( + T7 200 )( + T3 102 ) ) )
(or ( <= ( + T3 128 )  ( + T7 200 ) ) ( <= ( + T7 229 )( + T3 108 ) ) )
(or ( <= ( + T3 177 )  ( + T7 229 ) ) ( <= ( + T7 320 )( + T3 128 ) ) )
(or ( <= ( + T3 270 )  ( + T7 320 ) ) ( <= ( + T7 383 )( + T3 177 ) ) )
(or ( <= ( + T3 310 )  ( + T7 383 ) ) ( <= ( + T7 457 )( + T3 270 ) ) )
(or ( <= ( + T3 355 )  ( + T7 457 ) ) ( <= ( + T7 500 )( + T3 310 ) ) )
(or ( <= ( + T3 13 ) T8 ) ( <= ( + T8 13 ) T3 ) )
(or ( <= ( + T3 102 )  ( + T8 13 ) ) ( <= ( + T8 32 )( + T3 13 ) ) )
(or ( <= ( + T3 108 )  ( + T8 32 ) ) ( <= ( + T8 37 )( + T3 102 ) ) )
(or ( <= ( + T3 128 )  ( + T8 37 ) ) ( <= ( + T8 88 )( + T3 108 ) ) )
(or ( <= ( + T3 177 )  ( + T8 88 ) ) ( <= ( + T8 141 )( + T3 128 ) ) )
(or ( <= ( + T3 270 )  ( + T8 141 ) ) ( <= ( + T8 170 )( + T3 177 ) ) )
(or ( <= ( + T3 310 )  ( + T8 170 ) ) ( <= ( + T8 236 )( + T3 270 ) ) )
(or ( <= ( + T3 355 )  ( + T8 236 ) ) ( <= ( + T8 246 )( + T3 310 ) ) )
(or ( <= ( + T3 13 ) T9 ) ( <= ( + T9 37 ) T3 ) )
(or ( <= ( + T3 102 )  ( + T9 37 ) ) ( <= ( + T9 59 )( + T3 13 ) ) )
(or ( <= ( + T3 108 )  ( + T9 59 ) ) ( <= ( + T9 101 )( + T3 102 ) ) )
(or ( <= ( + T3 128 )  ( + T9 101 ) ) ( <= ( + T9 158 )( + T3 108 ) ) )
(or ( <= ( + T3 177 )  ( + T9 158 ) ) ( <= ( + T9 228 )( + T3 128 ) ) )
(or ( <= ( + T3 270 )  ( + T9 228 ) ) ( <= ( + T9 246 )( + T3 177 ) ) )
(or ( <= ( + T3 310 )  ( + T9 246 ) ) ( <= ( + T9 326 )( + T3 270 ) ) )
(or ( <= ( + T3 355 )  ( + T9 326 ) ) ( <= ( + T9 416 )( + T3 310 ) ) )
(or ( <= ( + T3 13 ) T10 ) ( <= ( + T10 14 ) T3 ) )
(or ( <= ( + T3 102 )  ( + T10 14 ) ) ( <= ( + T10 38 )( + T3 13 ) ) )
(or ( <= ( + T3 108 )  ( + T10 38 ) ) ( <= ( + T10 87 )( + T3 102 ) ) )
(or ( <= ( + T3 128 )  ( + T10 87 ) ) ( <= ( + T10 141 )( + T3 108 ) ) )
(or ( <= ( + T3 177 )  ( + T10 141 ) ) ( <= ( + T10 205 )( + T3 128 ) ) )
(or ( <= ( + T3 270 )  ( + T10 205 ) ) ( <= ( + T10 247 )( + T3 177 ) ) )
(or ( <= ( + T3 310 )  ( + T10 247 ) ) ( <= ( + T10 253 )( + T3 270 ) ) )
(or ( <= ( + T3 355 )  ( + T10 253 ) ) ( <= ( + T10 297 )( + T3 310 ) ) )
(or ( <= ( + T4 100 ) T5 ) ( <= ( + T5 6 ) T4 ) )
(or ( <= ( + T4 151 )  ( + T5 6 ) ) ( <= ( + T5 15 )( + T4 100 ) ) )
(or ( <= ( + T4 245 )  ( + T5 15 ) ) ( <= ( + T5 72 )( + T4 151 ) ) )
(or ( <= ( + T4 308 )  ( + T5 72 ) ) ( <= ( + T5 105 )( + T4 245 ) ) )
(or ( <= ( + T4 395 )  ( + T5 105 ) ) ( <= ( + T5 125 )( + T4 308 ) ) )
(or ( <= ( + T4 477 )  ( + T5 125 ) ) ( <= ( + T5 222 )( + T4 395 ) ) )
(or ( <= ( + T4 550 )  ( + T5 222 ) ) ( <= ( + T5 298 )( + T4 477 ) ) )
(or ( <= ( + T4 565 )  ( + T5 298 ) ) ( <= ( + T5 322 )( + T4 550 ) ) )
(or ( <= ( + T4 100 ) T6 ) ( <= ( + T6 21 ) T4 ) )
(or ( <= ( + T4 151 )  ( + T6 21 ) ) ( <= ( + T6 66 )( + T4 100 ) ) )
(or ( <= ( + T4 245 )  ( + T6 66 ) ) ( <= ( + T6 159 )( + T4 151 ) ) )
(or ( <= ( + T4 308 )  ( + T6 159 ) ) ( <= ( + T6 219 )( + T4 245 ) ) )
(or ( <= ( + T4 395 )  ( + T6 219 ) ) ( <= ( + T6 259 )( + T4 308 ) ) )
(or ( <= ( + T4 477 )  ( + T6 259 ) ) ( <= ( + T6 300 )( + T4 395 ) ) )
(or ( <= ( + T4 550 )  ( + T6 300 ) ) ( <= ( + T6 393 )( + T4 477 ) ) )
(or ( <= ( + T4 565 )  ( + T6 393 ) ) ( <= ( + T6 446 )( + T4 550 ) ) )
(or ( <= ( + T4 100 ) T7 ) ( <= ( + T7 29 ) T4 ) )
(or ( <= ( + T4 151 )  ( + T7 29 ) ) ( <= ( + T7 128 )( + T4 100 ) ) )
(or ( <= ( + T4 245 )  ( + T7 128 ) ) ( <= ( + T7 200 )( + T4 151 ) ) )
(or ( <= ( + T4 308 )  ( + T7 200 ) ) ( <= ( + T7 229 )( + T4 245 ) ) )
(or ( <= ( + T4 395 )  ( + T7 229 ) ) ( <= ( + T7 320 )( + T4 308 ) ) )
(or ( <= ( + T4 477 )  ( + T7 320 ) ) ( <= ( + T7 383 )( + T4 395 ) ) )
(or ( <= ( + T4 550 )  ( + T7 383 ) ) ( <= ( + T7 457 )( + T4 477 ) ) )
(or ( <= ( + T4 565 )  ( + T7 457 ) ) ( <= ( + T7 500 )( + T4 550 ) ) )
(or ( <= ( + T4 100 ) T8 ) ( <= ( + T8 13 ) T4 ) )
(or ( <= ( + T4 151 )  ( + T8 13 ) ) ( <= ( + T8 32 )( + T4 100 ) ) )
(or ( <= ( + T4 245 )  ( + T8 32 ) ) ( <= ( + T8 37 )( + T4 151 ) ) )
(or ( <= ( + T4 308 )  ( + T8 37 ) ) ( <= ( + T8 88 )( + T4 245 ) ) )
(or ( <= ( + T4 395 )  ( + T8 88 ) ) ( <= ( + T8 141 )( + T4 308 ) ) )
(or ( <= ( + T4 477 )  ( + T8 141 ) ) ( <= ( + T8 170 )( + T4 395 ) ) )
(or ( <= ( + T4 550 )  ( + T8 170 ) ) ( <= ( + T8 236 )( + T4 477 ) ) )
(or ( <= ( + T4 565 )  ( + T8 236 ) ) ( <= ( + T8 246 )( + T4 550 ) ) )
(or ( <= ( + T4 100 ) T9 ) ( <= ( + T9 37 ) T4 ) )
(or ( <= ( + T4 151 )  ( + T9 37 ) ) ( <= ( + T9 59 )( + T4 100 ) ) )
(or ( <= ( + T4 245 )  ( + T9 59 ) ) ( <= ( + T9 101 )( + T4 151 ) ) )
(or ( <= ( + T4 308 )  ( + T9 101 ) ) ( <= ( + T9 158 )( + T4 245 ) ) )
(or ( <= ( + T4 395 )  ( + T9 158 ) ) ( <= ( + T9 228 )( + T4 308 ) ) )
(or ( <= ( + T4 477 )  ( + T9 228 ) ) ( <= ( + T9 246 )( + T4 395 ) ) )
(or ( <= ( + T4 550 )  ( + T9 246 ) ) ( <= ( + T9 326 )( + T4 477 ) ) )
(or ( <= ( + T4 565 )  ( + T9 326 ) ) ( <= ( + T9 416 )( + T4 550 ) ) )
(or ( <= ( + T4 100 ) T10 ) ( <= ( + T10 14 ) T4 ) )
(or ( <= ( + T4 151 )  ( + T10 14 ) ) ( <= ( + T10 38 )( + T4 100 ) ) )
(or ( <= ( + T4 245 )  ( + T10 38 ) ) ( <= ( + T10 87 )( + T4 151 ) ) )
(or ( <= ( + T4 308 )  ( + T10 87 ) ) ( <= ( + T10 141 )( + T4 245 ) ) )
(or ( <= ( + T4 395 )  ( + T10 141 ) ) ( <= ( + T10 205 )( + T4 308 ) ) )
(or ( <= ( + T4 477 )  ( + T10 205 ) ) ( <= ( + T10 247 )( + T4 395 ) ) )
(or ( <= ( + T4 550 )  ( + T10 247 ) ) ( <= ( + T10 253 )( + T4 477 ) ) )
(or ( <= ( + T4 565 )  ( + T10 253 ) ) ( <= ( + T10 297 )( + T4 550 ) ) )
(or ( <= ( + T5 6 ) T6 ) ( <= ( + T6 21 ) T5 ) )
(or ( <= ( + T5 15 )  ( + T6 21 ) ) ( <= ( + T6 66 )( + T5 6 ) ) )
(or ( <= ( + T5 72 )  ( + T6 66 ) ) ( <= ( + T6 159 )( + T5 15 ) ) )
(or ( <= ( + T5 105 )  ( + T6 159 ) ) ( <= ( + T6 219 )( + T5 72 ) ) )
(or ( <= ( + T5 125 )  ( + T6 219 ) ) ( <= ( + T6 259 )( + T5 105 ) ) )
(or ( <= ( + T5 222 )  ( + T6 259 ) ) ( <= ( + T6 300 )( + T5 125 ) ) )
(or ( <= ( + T5 298 )  ( + T6 300 ) ) ( <= ( + T6 393 )( + T5 222 ) ) )
(or ( <= ( + T5 322 )  ( + T6 393 ) ) ( <= ( + T6 446 )( + T5 298 ) ) )
(or ( <= ( + T5 6 ) T7 ) ( <= ( + T7 29 ) T5 ) )
(or ( <= ( + T5 15 )  ( + T7 29 ) ) ( <= ( + T7 128 )( + T5 6 ) ) )
(or ( <= ( + T5 72 )  ( + T7 128 ) ) ( <= ( + T7 200 )( + T5 15 ) ) )
(or ( <= ( + T5 105 )  ( + T7 200 ) ) ( <= ( + T7 229 )( + T5 72 ) ) )
(or ( <= ( + T5 125 )  ( + T7 229 ) ) ( <= ( + T7 320 )( + T5 105 ) ) )
(or ( <= ( + T5 222 )  ( + T7 320 ) ) ( <= ( + T7 383 )( + T5 125 ) ) )
(or ( <= ( + T5 298 )  ( + T7 383 ) ) ( <= ( + T7 457 )( + T5 222 ) ) )
(or ( <= ( + T5 322 )  ( + T7 457 ) ) ( <= ( + T7 500 )( + T5 298 ) ) )
(or ( <= ( + T5 6 ) T8 ) ( <= ( + T8 13 ) T5 ) )
(or ( <= ( + T5 15 )  ( + T8 13 ) ) ( <= ( + T8 32 )( + T5 6 ) ) )
(or ( <= ( + T5 72 )  ( + T8 32 ) ) ( <= ( + T8 37 )( + T5 15 ) ) )
(or ( <= ( + T5 105 )  ( + T8 37 ) ) ( <= ( + T8 88 )( + T5 72 ) ) )
(or ( <= ( + T5 125 )  ( + T8 88 ) ) ( <= ( + T8 141 )( + T5 105 ) ) )
(or ( <= ( + T5 222 )  ( + T8 141 ) ) ( <= ( + T8 170 )( + T5 125 ) ) )
(or ( <= ( + T5 298 )  ( + T8 170 ) ) ( <= ( + T8 236 )( + T5 222 ) ) )
(or ( <= ( + T5 322 )  ( + T8 236 ) ) ( <= ( + T8 246 )( + T5 298 ) ) )
(or ( <= ( + T5 6 ) T9 ) ( <= ( + T9 37 ) T5 ) )
(or ( <= ( + T5 15 )  ( + T9 37 ) ) ( <= ( + T9 59 )( + T5 6 ) ) )
(or ( <= ( + T5 72 )  ( + T9 59 ) ) ( <= ( + T9 101 )( + T5 15 ) ) )
(or ( <= ( + T5 105 )  ( + T9 101 ) ) ( <= ( + T9 158 )( + T5 72 ) ) )
(or ( <= ( + T5 125 )  ( + T9 158 ) ) ( <= ( + T9 228 )( + T5 105 ) ) )
(or ( <= ( + T5 222 )  ( + T9 228 ) ) ( <= ( + T9 246 )( + T5 125 ) ) )
(or ( <= ( + T5 298 )  ( + T9 246 ) ) ( <= ( + T9 326 )( + T5 222 ) ) )
(or ( <= ( + T5 322 )  ( + T9 326 ) ) ( <= ( + T9 416 )( + T5 298 ) ) )
(or ( <= ( + T5 6 ) T10 ) ( <= ( + T10 14 ) T5 ) )
(or ( <= ( + T5 15 )  ( + T10 14 ) ) ( <= ( + T10 38 )( + T5 6 ) ) )
(or ( <= ( + T5 72 )  ( + T10 38 ) ) ( <= ( + T10 87 )( + T5 15 ) ) )
(or ( <= ( + T5 105 )  ( + T10 87 ) ) ( <= ( + T10 141 )( + T5 72 ) ) )
(or ( <= ( + T5 125 )  ( + T10 141 ) ) ( <= ( + T10 205 )( + T5 105 ) ) )
(or ( <= ( + T5 222 )  ( + T10 205 ) ) ( <= ( + T10 247 )( + T5 125 ) ) )
(or ( <= ( + T5 298 )  ( + T10 247 ) ) ( <= ( + T10 253 )( + T5 222 ) ) )
(or ( <= ( + T5 322 )  ( + T10 253 ) ) ( <= ( + T10 297 )( + T5 298 ) ) )
(or ( <= ( + T6 21 ) T7 ) ( <= ( + T7 29 ) T6 ) )
(or ( <= ( + T6 66 )  ( + T7 29 ) ) ( <= ( + T7 128 )( + T6 21 ) ) )
(or ( <= ( + T6 159 )  ( + T7 128 ) ) ( <= ( + T7 200 )( + T6 66 ) ) )
(or ( <= ( + T6 219 )  ( + T7 200 ) ) ( <= ( + T7 229 )( + T6 159 ) ) )
(or ( <= ( + T6 259 )  ( + T7 229 ) ) ( <= ( + T7 320 )( + T6 219 ) ) )
(or ( <= ( + T6 300 )  ( + T7 320 ) ) ( <= ( + T7 383 )( + T6 259 ) ) )
(or ( <= ( + T6 393 )  ( + T7 383 ) ) ( <= ( + T7 457 )( + T6 300 ) ) )
(or ( <= ( + T6 446 )  ( + T7 457 ) ) ( <= ( + T7 500 )( + T6 393 ) ) )
(or ( <= ( + T6 21 ) T8 ) ( <= ( + T8 13 ) T6 ) )
(or ( <= ( + T6 66 )  ( + T8 13 ) ) ( <= ( + T8 32 )( + T6 21 ) ) )
(or ( <= ( + T6 159 )  ( + T8 32 ) ) ( <= ( + T8 37 )( + T6 66 ) ) )
(or ( <= ( + T6 219 )  ( + T8 37 ) ) ( <= ( + T8 88 )( + T6 159 ) ) )
(or ( <= ( + T6 259 )  ( + T8 88 ) ) ( <= ( + T8 141 )( + T6 219 ) ) )
(or ( <= ( + T6 300 )  ( + T8 141 ) ) ( <= ( + T8 170 )( + T6 259 ) ) )
(or ( <= ( + T6 393 )  ( + T8 170 ) ) ( <= ( + T8 236 )( + T6 300 ) ) )
(or ( <= ( + T6 446 )  ( + T8 236 ) ) ( <= ( + T8 246 )( + T6 393 ) ) )
(or ( <= ( + T6 21 ) T9 ) ( <= ( + T9 37 ) T6 ) )
(or ( <= ( + T6 66 )  ( + T9 37 ) ) ( <= ( + T9 59 )( + T6 21 ) ) )
(or ( <= ( + T6 159 )  ( + T9 59 ) ) ( <= ( + T9 101 )( + T6 66 ) ) )
(or ( <= ( + T6 219 )  ( + T9 101 ) ) ( <= ( + T9 158 )( + T6 159 ) ) )
(or ( <= ( + T6 259 )  ( + T9 158 ) ) ( <= ( + T9 228 )( + T6 219 ) ) )
(or ( <= ( + T6 300 )  ( + T9 228 ) ) ( <= ( + T9 246 )( + T6 259 ) ) )
(or ( <= ( + T6 393 )  ( + T9 246 ) ) ( <= ( + T9 326 )( + T6 300 ) ) )
(or ( <= ( + T6 446 )  ( + T9 326 ) ) ( <= ( + T9 416 )( + T6 393 ) ) )
(or ( <= ( + T6 21 ) T10 ) ( <= ( + T10 14 ) T6 ) )
(or ( <= ( + T6 66 )  ( + T10 14 ) ) ( <= ( + T10 38 )( + T6 21 ) ) )
(or ( <= ( + T6 159 )  ( + T10 38 ) ) ( <= ( + T10 87 )( + T6 66 ) ) )
(or ( <= ( + T6 219 )  ( + T10 87 ) ) ( <= ( + T10 141 )( + T6 159 ) ) )
(or ( <= ( + T6 259 )  ( + T10 141 ) ) ( <= ( + T10 205 )( + T6 219 ) ) )
(or ( <= ( + T6 300 )  ( + T10 205 ) ) ( <= ( + T10 247 )( + T6 259 ) ) )
(or ( <= ( + T6 393 )  ( + T10 247 ) ) ( <= ( + T10 253 )( + T6 300 ) ) )
(or ( <= ( + T6 446 )  ( + T10 253 ) ) ( <= ( + T10 297 )( + T6 393 ) ) )
(or ( <= ( + T7 29 ) T8 ) ( <= ( + T8 13 ) T7 ) )
(or ( <= ( + T7 128 )  ( + T8 13 ) ) ( <= ( + T8 32 )( + T7 29 ) ) )
(or ( <= ( + T7 200 )  ( + T8 32 ) ) ( <= ( + T8 37 )( + T7 128 ) ) )
(or ( <= ( + T7 229 )  ( + T8 37 ) ) ( <= ( + T8 88 )( + T7 200 ) ) )
(or ( <= ( + T7 320 )  ( + T8 88 ) ) ( <= ( + T8 141 )( + T7 229 ) ) )
(or ( <= ( + T7 383 )  ( + T8 141 ) ) ( <= ( + T8 170 )( + T7 320 ) ) )
(or ( <= ( + T7 457 )  ( + T8 170 ) ) ( <= ( + T8 236 )( + T7 383 ) ) )
(or ( <= ( + T7 500 )  ( + T8 236 ) ) ( <= ( + T8 246 )( + T7 457 ) ) )
(or ( <= ( + T7 29 ) T9 ) ( <= ( + T9 37 ) T7 ) )
(or ( <= ( + T7 128 )  ( + T9 37 ) ) ( <= ( + T9 59 )( + T7 29 ) ) )
(or ( <= ( + T7 200 )  ( + T9 59 ) ) ( <= ( + T9 101 )( + T7 128 ) ) )
(or ( <= ( + T7 229 )  ( + T9 101 ) ) ( <= ( + T9 158 )( + T7 200 ) ) )
(or ( <= ( + T7 320 )  ( + T9 158 ) ) ( <= ( + T9 228 )( + T7 229 ) ) )
(or ( <= ( + T7 383 )  ( + T9 228 ) ) ( <= ( + T9 246 )( + T7 320 ) ) )
(or ( <= ( + T7 457 )  ( + T9 246 ) ) ( <= ( + T9 326 )( + T7 383 ) ) )
(or ( <= ( + T7 500 )  ( + T9 326 ) ) ( <= ( + T9 416 )( + T7 457 ) ) )
(or ( <= ( + T7 29 ) T10 ) ( <= ( + T10 14 ) T7 ) )
(or ( <= ( + T7 128 )  ( + T10 14 ) ) ( <= ( + T10 38 )( + T7 29 ) ) )
(or ( <= ( + T7 200 )  ( + T10 38 ) ) ( <= ( + T10 87 )( + T7 128 ) ) )
(or ( <= ( + T7 229 )  ( + T10 87 ) ) ( <= ( + T10 141 )( + T7 200 ) ) )
(or ( <= ( + T7 320 )  ( + T10 141 ) ) ( <= ( + T10 205 )( + T7 229 ) ) )
(or ( <= ( + T7 383 )  ( + T10 205 ) ) ( <= ( + T10 247 )( + T7 320 ) ) )
(or ( <= ( + T7 457 )  ( + T10 247 ) ) ( <= ( + T10 253 )( + T7 383 ) ) )
(or ( <= ( + T7 500 )  ( + T10 253 ) ) ( <= ( + T10 297 )( + T7 457 ) ) )
(or ( <= ( + T8 13 ) T9 ) ( <= ( + T9 37 ) T8 ) )
(or ( <= ( + T8 32 )  ( + T9 37 ) ) ( <= ( + T9 59 )( + T8 13 ) ) )
(or ( <= ( + T8 37 )  ( + T9 59 ) ) ( <= ( + T9 101 )( + T8 32 ) ) )
(or ( <= ( + T8 88 )  ( + T9 101 ) ) ( <= ( + T9 158 )( + T8 37 ) ) )
(or ( <= ( + T8 141 )  ( + T9 158 ) ) ( <= ( + T9 228 )( + T8 88 ) ) )
(or ( <= ( + T8 170 )  ( + T9 228 ) ) ( <= ( + T9 246 )( + T8 141 ) ) )
(or ( <= ( + T8 236 )  ( + T9 246 ) ) ( <= ( + T9 326 )( + T8 170 ) ) )
(or ( <= ( + T8 246 )  ( + T9 326 ) ) ( <= ( + T9 416 )( + T8 236 ) ) )
(or ( <= ( + T8 13 ) T10 ) ( <= ( + T10 14 ) T8 ) )
(or ( <= ( + T8 32 )  ( + T10 14 ) ) ( <= ( + T10 38 )( + T8 13 ) ) )
(or ( <= ( + T8 37 )  ( + T10 38 ) ) ( <= ( + T10 87 )( + T8 32 ) ) )
(or ( <= ( + T8 88 )  ( + T10 87 ) ) ( <= ( + T10 141 )( + T8 37 ) ) )
(or ( <= ( + T8 141 )  ( + T10 141 ) ) ( <= ( + T10 205 )( + T8 88 ) ) )
(or ( <= ( + T8 170 )  ( + T10 205 ) ) ( <= ( + T10 247 )( + T8 141 ) ) )
(or ( <= ( + T8 236 )  ( + T10 247 ) ) ( <= ( + T10 253 )( + T8 170 ) ) )
(or ( <= ( + T8 246 )  ( + T10 253 ) ) ( <= ( + T10 297 )( + T8 236 ) ) )
(or ( <= ( + T9 37 ) T10 ) ( <= ( + T10 14 ) T9 ) )
(or ( <= ( + T9 59 )  ( + T10 14 ) ) ( <= ( + T10 38 )( + T9 37 ) ) )
(or ( <= ( + T9 101 )  ( + T10 38 ) ) ( <= ( + T10 87 )( + T9 59 ) ) )
(or ( <= ( + T9 158 )  ( + T10 87 ) ) ( <= ( + T10 141 )( + T9 101 ) ) )
(or ( <= ( + T9 228 )  ( + T10 141 ) ) ( <= ( + T10 205 )( + T9 158 ) ) )
(or ( <= ( + T9 246 )  ( + T10 205 ) ) ( <= ( + T10 247 )( + T9 228 ) ) )
(or ( <= ( + T9 326 )  ( + T10 247 ) ) ( <= ( + T10 253 )( + T9 246 ) ) )
(or ( <= ( + T9 416 )  ( + T10 253 ) ) ( <= ( + T10 297 )( + T9 326 ) ) )
( <= ( + T1 497 ) Z)
( <= ( + T2 479 ) Z)
( <= ( + T3 355 ) Z)
( <= ( + T4 565 ) Z)
( <= ( + T5 322 ) Z)
( <= ( + T6 446 ) Z)
( <= ( + T7 500 ) Z)
( <= ( + T8 246 ) Z)
( <= ( + T9 416 ) Z)
( <= ( + T10 297 ) Z)
( >= T1 0 )
( >= T2 0 )
( >= T3 0 )
( >= T4 0 )
( >= T5 0 )
( >= T6 0 )
( >= T7 0 )
( >= T8 0 )
( >= T9 0 )
( >= T10 0 )
) )
)(=> $phi $goal))))